NAME : sim17.46419.tour
COMMENT : Length = 46419
COMMENT : Found by LKH [Keld Helsgaun] Fri Sep 14 10:58:43 2018
TYPE : TOUR
DIMENSION : 17
TOUR_SECTION
1
2
6
10
12
11
5
15
4
13
9
14
7
8
17
16
3
-1
EOF
